clingo version 5.4.1
Reading from provaASP3.lp
Solving...
Answer: 1
assign(1,12,4) assign(2,10,2) assign(3,7,2) assign(4,6,3) assign(5,3,1) assign(6,4,4) assign(7,4,4) assign(8,4,4) assign(9,11,4) assign(10,15,2) assign(11,1,1) assign(12,10,2) assign(13,1,1) assign(14,10,2) assign(15,6,3) assign(16,15,2) assign(17,13,1) assign(18,15,2) assign(19,11,4) assign(20,13,1) assign(21,11,4) assign(22,1,1) assign(23,13,1) assign(24,1,1) assign(25,12,4) assign(26,13,1) assign(27,8,2) assign(28,16,1) assign(29,12,4) assign(30,3,1) count_seats_occupied(1,1,4) count_seats_occupied(1,3,2) count_seats_occupied(1,13,4) count_seats_occupied(1,16,1) count_seats_occupied(2,7,1) count_seats_occupied(2,8,1) count_seats_occupied(2,10,3) count_seats_occupied(2,15,3) count_seats_occupied(3,2,0) count_seats_occupied(3,6,2) count_seats_occupied(3,9,0) count_seats_occupied(3,14,0) count_seats_occupied(4,4,3) count_seats_occupied(4,5,0) count_seats_occupied(4,11,3) count_seats_occupied(4,12,3)
Optimization: 4
Answer: 2
assign(1,14,4) assign(2,13,4) assign(3,3,2) assign(4,6,1) assign(5,3,2) assign(6,3,2) assign(7,3,2) assign(8,6,1) assign(9,2,2) assign(10,15,1) assign(11,1,2) assign(12,7,4) assign(13,4,1) assign(14,13,4) assign(15,6,1) assign(16,1,2) assign(17,11,1) assign(18,4,1) assign(19,15,1) assign(20,11,1) assign(21,15,1) assign(22,11,1) assign(23,1,2) assign(24,15,1) assign(25,4,1) assign(26,11,1) assign(27,9,4) assign(28,6,1) assign(29,14,4) assign(30,1,2) count_seats_occupied(1,4,3) count_seats_occupied(1,6,4) count_seats_occupied(1,11,4) count_seats_occupied(1,15,4) count_seats_occupied(2,1,4) count_seats_occupied(2,2,1) count_seats_occupied(2,3,4) count_seats_occupied(2,10,0) count_seats_occupied(3,5,0) count_seats_occupied(3,8,0) count_seats_occupied(3,12,0) count_seats_occupied(3,16,0) count_seats_occupied(4,7,1) count_seats_occupied(4,9,1) count_seats_occupied(4,13,2) count_seats_occupied(4,14,2)
Optimization: 3
Answer: 3
assign(1,8,1) assign(2,15,4) assign(3,9,1) assign(4,3,1) assign(5,7,4) assign(6,14,4) assign(7,14,4) assign(8,7,4) assign(9,15,4) assign(10,16,4) assign(11,7,4) assign(12,14,4) assign(13,8,1) assign(14,15,4) assign(15,3,1) assign(16,16,4) assign(17,12,1) assign(18,8,1) assign(19,12,1) assign(20,12,1) assign(21,14,4) assign(22,9,1) assign(23,16,4) assign(24,9,1) assign(25,9,1) assign(26,12,1) assign(27,16,4) assign(28,7,4) assign(29,8,1) assign(30,15,4) count_seats_occupied(1,3,2) count_seats_occupied(1,8,4) count_seats_occupied(1,9,4) count_seats_occupied(1,12,4) count_seats_occupied(2,1,0) count_seats_occupied(2,2,0) count_seats_occupied(2,6,0) count_seats_occupied(2,10,0) count_seats_occupied(3,4,0) count_seats_occupied(3,5,0) count_seats_occupied(3,11,0) count_seats_occupied(3,13,0) count_seats_occupied(4,7,4) count_seats_occupied(4,14,4) count_seats_occupied(4,15,4) count_seats_occupied(4,16,4)
Optimization: 2
OPTIMUM FOUND

Models       : 3
  Optimum    : yes
Optimization : 2
Calls        : 1
Time         : 0.126s (Solving: 0.03s 1st Model: 0.02s Unsat: 0.01s)
CPU Time     : 0.117s
